c Sixteen Cell Graph
c Source : https://houseofgraphs.org/graphs/176
c HoG id : 176
c Number of vertices : 8
c Number of edges : 24
c Maximum clique size : 4
p edge 8 24
e 1 2
e 1 3
e 1 4
e 1 5
e 1 6
e 1 7
e 2 3
e 2 4
e 2 5
e 2 6
e 2 8
e 3 4
e 3 5
e 3 7
e 3 8
e 4 6
e 4 7
e 4 8
e 5 6
e 5 7
e 5 8
e 6 7
e 6 8
e 7 8